(set-logic HORN)
(set-info :source |
    Benchmark: C_VC
    Output by Princess (http://www.philipp.ruemmer.org/princess.shtml)
|)
(set-info :status unknown)
(declare-fun inv_main12 (Int Int Int Int Int Int) Bool)
(declare-fun inv_main20 (Int Int Int Int Int Int) Bool)
(declare-fun inv_main8 (Int Int Int Int Int Int) Bool)
(assert (forall ((var0 Int)) (forall ((var1 Int)) (forall ((var2 Int)) (forall ((var3 Int)) (inv_main8 var3 var1 0 0 var2 var0 ) ) ) ) ) )
(assert (forall ((var0 Int)) (forall ((var1 Int)) (forall ((var2 Int)) (forall ((var3 Int)) (forall ((var4 Int)) (forall ((var5 Int)) (or (not (and (inv_main12 var0 var2 var5 var4 var3 var1 ) (<= 0 (+ var0 (* (- 1) var5 ) ) ) ) ) (inv_main12 var0 var2 (+ var5 1 ) (+ var4 var3 ) var3 var1 ) ) ) ) ) ) ) ) )
(assert (forall ((var0 Int)) (forall ((var1 Int)) (forall ((var2 Int)) (forall ((var3 Int)) (forall ((var4 Int)) (forall ((var5 Int)) (or (not (and (inv_main12 var0 var2 var5 var4 var3 var1 ) (and (not (= var4 var5 ) ) (and (= var2 1 ) (not (<= 0 (+ var0 (* (- 1) var5 ) ) ) ) ) ) ) ) (inv_main20 var0 var2 var5 var4 var3 var1 ) ) ) ) ) ) ) ) )
(assert (forall ((var0 Int)) (forall ((var1 Int)) (forall ((var2 Int)) (forall ((var3 Int)) (forall ((var4 Int)) (forall ((var5 Int)) (or (not (and (inv_main8 var0 var2 var5 var4 var3 var1 ) (= var2 1 ) ) ) (inv_main12 var0 var2 0 var4 1 var1 ) ) ) ) ) ) ) ) )
(assert (forall ((var0 Int)) (forall ((var1 Int)) (forall ((var2 Int)) (forall ((var3 Int)) (forall ((var4 Int)) (forall ((var5 Int)) (or (not (and (inv_main8 var0 var2 var5 var4 var3 var1 ) (not (= var2 1 ) ) ) ) (inv_main12 var0 var2 0 var4 2 var1 ) ) ) ) ) ) ) ) )
(assert (forall ((var0 Int)) (forall ((var1 Int)) (forall ((var2 Int)) (forall ((var3 Int)) (forall ((var4 Int)) (forall ((var5 Int)) (not (inv_main20 var0 var2 var5 var4 var3 var1 ) ) ) ) ) ) ) ) )
(check-sat)
